100
32
1
4
27
28
26
27
12
20
30
27
26
17
15
10
3
29
31
32
2
31
11
12
25
31
32
13
27
18
1
17
29
16
14
31
24
31
13
32
12
17
12
28
4
22
8
32
3
27
3
9
20
25
31
28
27
27
24
32
28
1
3
7
11
28
21
29
26
32
12
22
20
5
18
7
25
18
8
19
29
32
6
5
28
23
27
4
22
20
5
10
28
16
7
18
19
30
3
30
22
6